<number of tasks>
50

<cycle time>
1000

<order strength>
0.896


<task times>
1 29
2 238
3 524
4 448
5 227
6 251
7 269
8 232
9 166
10 107
11 178
12 120
13 511
14 362
15 57
16 59
17 205
18 172
19 38
20 211
21 112
22 211
23 165
24 45
25 531
26 163
27 84
28 112
29 288
30 237
31 188
32 31
33 483
34 166
35 117
36 40
37 78
38 255
39 502
40 357
41 75
42 177
43 294
44 206
45 151
46 73
47 51
48 103
49 55
50 45

<precedence relations>
1,4
1,5
1,6
2,4
2,5
2,6
3,4
3,5
3,6
4,7
5,7
6,7
7,8
7,9
7,10
7,11
8,12
8,13
8,14
8,15
9,12
9,13
9,14
9,15
10,12
10,13
10,14
10,15
11,12
11,13
11,14
11,15
12,16
12,17
12,18
12,19
13,16
13,17
13,18
13,19
14,16
14,17
14,18
14,19
15,16
15,17
15,18
15,19
16,20
16,21
16,22
17,20
17,21
17,22
18,20
18,21
18,22
19,20
19,21
19,22
20,23
20,24
20,25
21,23
21,26
21,27
22,23
22,25
23,31
24,33
24,34
24,35
25,26
25,27
26,28
26,29
26,37
26,38
27,30
27,31
28,40
29,40
30,33
31,32
32,33
32,34
32,35
33,38
34,37
35,36
35,37
35,38
36,39
37,39
37,40
38,39
38,40
39,41
39,47
40,41
40,42
41,43
41,44
41,46
42,45
42,46
44,49
45,47
46,48
49,50

<end>
